matpower/case5_asym.m
[info | PowerModels]: removing 1 cost terms from generator 4: [4000.0, 0.0]
[info | PowerModels]: removing 1 cost terms from generator 1: [1400.0, 0.0]
[info | PowerModels]: removing 1 cost terms from generator 5: [1000.0, 0.0]
[info | PowerModels]: removing 1 cost terms from generator 2: [1500.0, 0.0]
[info | PowerModels]: removing 1 cost terms from generator 3: [3000.0, 0.0]

******************************************************************************
This program contains Ipopt, a library for large-scale nonlinear optimization.
 Ipopt is released as open source code under the Eclipse Public License (EPL).
         For more information visit http://projects.coin-or.org/Ipopt
******************************************************************************

This is Ipopt version 3.13.2, running with linear solver mumps.
NOTE: Other linear solvers might be more efficient (see Ipopt documentation).

Number of nonzeros in equality constraint Jacobian...:      155
Number of nonzeros in inequality constraint Jacobian.:       48
Number of nonzeros in Lagrangian Hessian.............:      264

Total number of variables............................:       44
                     variables with only lower bounds:        0
                variables with lower and upper bounds:       39
                     variables with only upper bounds:        0
Total number of equality constraints.................:       35
Total number of inequality constraints...............:       24
        inequality constraints with only lower bounds:        6
   inequality constraints with lower and upper bounds:        0
        inequality constraints with only upper bounds:       18

iter    objective    inf_pr   inf_du lg(mu)  ||d||  lg(rg) alpha_du alpha_pr  ls
   0  1.0059989e+02 3.99e+00 2.88e+01  -1.0 0.00e+00    -  0.00e+00 0.00e+00   0
   1  8.3037886e+03 2.47e+00 1.01e+02  -1.0 2.78e+00    -  4.11e-03 3.82e-01h  1
   2  6.7193035e+03 2.36e+00 9.62e+01  -1.0 1.59e+01    -  7.41e-02 4.47e-02f  1
   3  6.6713112e+03 2.30e+00 9.34e+01  -1.0 1.29e+01    -  4.95e-01 2.41e-02f  1
   4  6.5848634e+03 2.04e+00 8.24e+01  -1.0 1.28e+01    -  3.71e-01 1.13e-01f  2
   5  6.8484423e+03 1.79e+00 7.07e+01  -1.0 1.23e+01    -  8.75e-01 1.23e-01h  2
   6  8.8758681e+03 1.07e+00 4.20e+01  -1.0 9.10e+00    -  5.63e-01 3.99e-01h  1
   7  1.0527858e+04 8.67e-01 3.47e+01  -1.0 2.93e+00    -  3.05e-01 1.93e-01h  1
   8  1.7325528e+04 3.48e-02 1.58e+01  -1.0 2.44e+00    -  7.54e-01 9.60e-01h  1
   9  1.7572011e+04 1.32e-02 1.83e+00  -1.0 2.17e+00    -  1.00e+00 1.00e+00h  1
iter    objective    inf_pr   inf_du lg(mu)  ||d||  lg(rg) alpha_du alpha_pr  ls
  10  1.7590037e+04 1.57e-03 1.49e-01  -1.0 5.04e-01    -  1.00e+00 1.00e+00h  1
  11  1.7558796e+04 4.79e-03 6.41e-01  -2.5 6.03e-01    -  8.39e-01 9.39e-01f  1
  12  1.7552812e+04 3.51e-03 2.30e+00  -2.5 2.74e-01    -  1.00e+00 9.01e-01h  1
  13  1.7552978e+04 2.91e-05 4.27e-03  -2.5 3.74e-02    -  1.00e+00 1.00e+00h  1
  14  1.7551984e+04 1.80e-05 1.00e+00  -3.8 2.51e-02    -  1.00e+00 9.30e-01h  1
  15  1.7551938e+04 4.17e-08 1.18e-02  -3.8 6.71e-03    -  1.00e+00 1.00e+00f  1
  16  1.7551940e+04 1.96e-10 1.72e-04  -3.8 3.41e-04    -  1.00e+00 1.00e+00h  1
  17  1.7551892e+04 1.75e-07 2.10e-01  -5.7 2.49e-03    -  1.00e+00 9.68e-01f  1
  18  1.7551891e+04 6.13e-11 3.09e-05  -5.7 2.38e-04    -  1.00e+00 1.00e+00f  1
  19  1.7551891e+04 2.60e-14 6.50e-10  -5.7 5.19e-07    -  1.00e+00 1.00e+00h  1
iter    objective    inf_pr   inf_du lg(mu)  ||d||  lg(rg) alpha_du alpha_pr  ls
  20  1.7551891e+04 6.26e-12 3.03e-07  -8.6 3.52e-05    -  1.00e+00 1.00e+00f  1
  21  1.7551891e+04 9.46e-14 2.73e-12  -8.6 3.34e-08    -  1.00e+00 1.00e+00h  1

Number of Iterations....: 21

                                   (scaled)                 (unscaled)
Objective...............:   4.3879727096486880e+02    1.7551890838594751e+04
Dual infeasibility......:   2.7291959308965313e-12    1.0916783723586125e-10
Constraint violation....:   6.1143623497628141e-14    9.4591001698063337e-14
Complementarity.........:   2.5059076268390427e-09    1.0023630507356171e-07
Overall NLP error.......:   2.5059076268390427e-09    1.0023630507356171e-07


Number of objective function evaluations             = 28
Number of objective gradient evaluations             = 22
Number of equality constraint evaluations            = 28
Number of inequality constraint evaluations          = 28
Number of equality constraint Jacobian evaluations   = 22
Number of inequality constraint Jacobian evaluations = 22
Number of Lagrangian Hessian evaluations             = 21
Total CPU secs in IPOPT (w/o function evaluations)   =      2.160
Total CPU secs in NLP function evaluations           =      1.518

EXIT: Optimal Solution Found.
Time to Solution........:4.407238006591797
Final cost..............:
